FILENAME:   /home/mcs001/s132664/testsets/IP/miplib2010/neos-785912.mps.gz
SETTINGS:   settings_isopr_ostrowskidynamicbranching_avoidsubtreenodes
TIMELIMIT:  7200
OUTPUTNAME: final_miplib_symretope_if_extended_generating_set_cpx_v802__settings_isopr_ostrowskidynamicbranching_avoidsubtreenodes__2__
BINNAME:    bin/symmetries.linux.x86_64.gnu.opt.cpx
BASENAME:   neos-785912.mps.gz
SEED:       2
@01 /home/mcs001/s132664/testsets/IP/miplib2010/neos-785912.mps.gz ===========
@02 neos-785912.mps.gz
@03 1686574994
SCIP version 8.0.2 [precision: 8 byte] [memory: block] [mode: optimized] [LP solver: CPLEX 20.1.0.0] [GitHash: 5f0473c]
Copyright (C) 2002-2022 Konrad-Zuse-Zentrum fuer Informationstechnik Berlin (ZIB)

Symmetry handling routines - (c) Marc Pfetsch, Thomas Rehn, Christopher Hojny.
[GitHash: a1587cb]


Turned off presolver <gateextraction>.
reading parameter file <../settings/settings_isopr_ostrowskidynamicbranching_avoidsubtreenodes.set> ...

Changed settings:
limits/time = 7200
limits/restarts = 0
randomization/randomseedshift = 2
constraints/orbitope/sepafreq = -1
constraints/orbitope/propfreq = 1
presolving/gateextraction/maxrounds = 0
propagating/isoprune/avoidsubtreenodes = TRUE
useisoprune = TRUE


solving problem ...

original problem has 1380 variables (1380 bin, 0 int, 0 impl, 0 cont) and 1714 constraints
presolving:
(round 1, exhaustive) 0 del vars, 16 del conss, 0 add conss, 0 chg bounds, 12 chg sides, 0 chg coeffs, 0 upgd conss, 0 impls, 1494 clqs
(round 2, exhaustive) 0 del vars, 16 del conss, 0 add conss, 0 chg bounds, 12 chg sides, 0 chg coeffs, 1698 upgd conss, 0 impls, 1494 clqs
(round 3, medium)     0 del vars, 214 del conss, 165 add conss, 0 chg bounds, 177 chg sides, 4145 chg coeffs, 1698 upgd conss, 0 impls, 1494 clqs
   (0.4s) probing: 1000/1380 (72.5%) - 0 fixings, 0 aggregations, 47754 implications, 0 bound changes
   (0.4s) probing: 1001/1380 (72.5%) - 0 fixings, 0 aggregations, 47812 implications, 0 bound changes
   (0.4s) probing aborted: 1000/1000 successive useless probings
Required symmetry:			(1 bin, 0 int, 0 cont); (fixed: 0 bin, 1 int, 0 cont)
Time for symmetry detection:		0.02 	(matrix graph, 5805 nodes, 24450 edges)
Number of generators:			26 	(max: 1500)
Log10 of symmetry group order:		9.8
Number of vars moved by some symmetry:	1260
Total time for symmetry detection:	0.02

Turned off presolver <domcol>.
Turned off presolver <components>.

presolving (4 rounds: 4 fast, 4 medium, 3 exhaustive):
 0 deleted vars, 214 deleted constraints, 165 added constraints, 0 tightened bounds, 0 added holes, 177 changed sides, 4145 changed coefficients
 0 implications, 14206 cliques
presolved problem has 1380 variables (1380 bin, 0 int, 0 impl, 0 cont) and 1666 constraints
     23 constraints of type <knapsack>
   1484 constraints of type <setppc>
    158 constraints of type <logicor>
      1 constraints of type <symmetries>
transformed objective value is always integral (scale: 1)
Presolving Time: 0.46

 time | node  | left  |LP iter|LP it/n|mem/heur|mdpt |frac |vars |cons |cols |rows |cuts |confs|strbr|  dualbound   | primalbound  |  gap   
  0.5s|     1 |     0 |    77 |     - |    25M |   0 | 369 |1380 |1793 |1380 |1665 |   0 | 126 |   0 | 4.200000e+01 |      --      |    Inf 
  1.6s|     1 |     2 |  6061 |     - |    29M |   0 | 369 |1380 |1932 |1380 |1665 |   0 | 131 |  10 | 4.200000e+01 |      --      |    Inf 
  4.9s|   100 |     9 | 17709 | 117.8 |    33M |  17 | 284 |1380 |2074 |1380 |1665 |   0 | 273 |  10 | 4.200000e+01 |      --      |    Inf 
  7.6s|   200 |     1 | 33329 | 137.1 |    33M |  17 |   - |1380 |2122 |1380 |1665 |   0 | 446 |  10 | 4.200000e+01 |      --      |    Inf 

SCIP Status        : problem is solved [infeasible]
Solving Time (sec) : 7.66
Solving Nodes      : 202
Primal Bound       : +1.00000000000000e+20 (0 solutions)
Dual Bound         : +1.00000000000000e+20
Gap                : 0.00 %

Number of variables fixed to 0 by isomorphism pruning:	   493
Number of variables fixed to 1 by isomorphism pruning:	     0
@04 1686575001
